2997714742343303415501,15,1,2,08,9,1,2,04,15,1,2,03,1,1,2,015,6,1,2,07,8,1,2,07,6,1,2,015,3,1,2,07,15,1,2,06,4,1,2,06,5,1,2,01,11,1,2,014,5,1,2,012,11,1,2,08,12,1,2,010,6,1,2,04,12,1,2,05,1,1,2,07,12,1,2,05,6,1,2,05,15,1,2,015,15,1,2,03,7,1,2,014,13,1,2,012,15,1,2,011,7,1,2,012,1,1,2,08,7,1,2,01,6,1,2,014,15,1,2,06,4,1,2,011,9,1,2,010,11,1,2,08,2,1,2,05,3,1,2,06,6,1,2,05,5,1,2,06,4,1,2,03,8,1,2,03,3,1,2,04,10,1,2,012,14,1,2,08,4,1,2,013,14,1,2,03,11,1,2,010,11,1,2,015,13,1,2,09,9,1,2,010,7,1,2,08,14,1,2,0